peakDumbCharging = 25900; 
Machine = anon_enum(16); 
machineSpeed = [3700,3700,3700,3700,3700,3700,3700,3700,3700,3700,3700,3700,3700,3700,3700,3700]; 
machineLoad = [3700,3700,3700,3700,3700,3700,3700,3700,3700,3700,3700,3700,3700,3700,3700,3700]; 
Car = anon_enum(27); 
demandCar = [23280,9840,3920,3160,14320,13560,9520,6960,6120,7000,7480,3080,6160,14320,9440,1800,4480,7440,12440,7720,15360,3840,3760,6000,8200,5640,10000]; 
arrivalCar = [73,70,69,68,67,67,66,66,66,65,65,64,62,60,60,59,59,55,54,54,53,53,47,43,43,39,36]; 
departureCar = [81,76,71,72,74,73,70,69,70,70,68,67,66,68,67,61,61,59,59,57,62,56,49,60,47,44,40]; 
